p cnf 41 39
-1 12 0 
-2 8 13 0 
-3 -4 -5 14 0 
-3 -4 -5 15 0 
-2 8 12 0 
-2 8 16 0 
-6 -7 11 17 0 
-6 -7 11 18 0 
-6 -7 11 19 0 
-6 -7 11 20 0 
-6 -7 11 21 0 
-8 2 -9 22 0 
-8 2 -9 23 0 
-8 2 -9 15 0 
-7 11 -2 8 24 0 
-10 -7 11 -2 8 23 0 
-2 8 25 0 
-2 8 26 0 
-2 8 27 0 
-8 2 -5 13 0 
-11 7 28 0 
-11 7 -2 8 29 0 
-11 7 -2 8 30 0 
-11 7 -2 8 31 0 
-11 7 -2 8 32 0 
-11 7 33 0 
-9 22 0 
-9 23 0 
-9 15 0 
-9 -8 2 34 0 
-9 -8 2 14 0 
-9 -8 2 24 0 
-6 35 0 
-6 -7 11 36 0 
-6 37 0 
-6 -7 11 38 0 
-6 39 0 
-6 -7 11 40 0 
-6 -7 11 41 0 
